! Opt PBE def2-SVP D3 PAL8
*xyzfile 0 1 bvl_bpin2.xyz
